
Gurobi 11.0.3 (mac64[x86]) logging started Wed Apr  9 17:48:11 2025

Set parameter LogFile to value "Results/Conservative_experiment/sanity_check_v32_none.log"
Set parameter TimeLimit to value 84600
Set parameter Method to value 2
Set parameter Crossover to value 0
Set parameter BarConvTol to value 1e-10
Gurobi Optimizer version 11.0.3 build v11.0.3rc0 (mac64[x86] - Darwin 23.4.0 23E214)

CPU model: Intel(R) Core(TM) i7-1060NG7 CPU @ 1.20GHz
Thread count: 4 physical cores, 8 logical processors, using up to 8 threads

Optimize a model with 1494624 rows, 1917920 columns and 7072112 nonzeros
Model fingerprint: 0x1ae76352
Coefficient statistics:
  Matrix range     [2e-01, 1e+00]
  Objective range  [6e-05, 2e+00]
  Bounds range     [0e+00, 0e+00]
  RHS range        [1e-02, 3e+03]
Presolve removed 1207728 rows and 1390128 columns (presolve time = 5s) ...
Presolve removed 1209680 rows and 1390240 columns
Presolve time: 5.79s
Presolved: 284944 rows, 527776 columns, 1880704 nonzeros
Ordering time: 0.73s

Barrier statistics:
 AA' NZ     : 2.504e+05
 Factor NZ  : 5.115e+06 (roughly 80 MB of memory)
 Factor Ops : 3.106e+09 (less than 1 second per iteration)
 Threads    : 4

                  Objective                Residual
Iter       Primal          Dual         Primal    Dual     Compl     Time
   0   1.18913908e+07  8.83795514e+10  1.86e+04 3.18e+03  2.54e+07     7s
   1  -6.64256667e+06  5.55680593e+10  5.49e+03 3.57e+03  8.71e+06     8s
   2  -9.21219340e+06  6.33367672e+09  1.38e+03 4.66e+02  1.40e+06     8s
   3  -9.08566798e+06  1.06691456e+09  1.19e+02 1.84e+01  8.81e+04     8s
   4  -8.54987050e+06  3.14268684e+08  1.16e+01 1.47e+00  1.14e+04     8s
   5  -7.10470711e+06  4.27194088e+07  6.24e-01 5.42e-02  8.35e+02     8s
   6  -8.68023102e+05  2.39322259e+06  8.39e-03 1.71e-03  4.39e+01     9s
   7   1.24215673e+04  1.91398234e+05  7.14e-05 2.15e-12  2.40e+00     9s
   8   3.82149744e+04  6.55262724e+04  7.85e-06 3.17e-13  3.55e-01     9s
   9   4.21534439e+04  5.27303853e+04  2.83e-06 1.04e-13  1.35e-01    10s
  10   4.49140928e+04  4.83891092e+04  9.20e-07 3.20e-14  4.40e-02    10s
  11   4.58084390e+04  4.74256429e+04  3.26e-07 1.80e-14  2.04e-02    10s
  12   4.61873968e+04  4.69245935e+04  1.14e-07 7.99e-15  9.30e-03    10s
  13   4.63839368e+04  4.67313443e+04  3.57e-08 4.22e-15  4.38e-03    10s
  14   4.64798239e+04  4.65772616e+04  6.80e-09 3.55e-15  1.23e-03    10s
  15   4.65080150e+04  4.65359051e+04  1.41e-09 3.55e-15  3.52e-04    11s
  16   4.65169938e+04  4.65225384e+04  2.24e-10 3.55e-15  6.99e-05    11s
  17   4.65187000e+04  4.65200654e+04  1.48e-10 3.55e-15  1.72e-05    11s
  18   4.65191882e+04  4.65195358e+04  2.49e-10 1.25e-15  4.38e-06    11s
  19   4.65192891e+04  4.65194595e+04  1.72e-10 1.09e-15  2.15e-06    12s
  20   4.65193354e+04  4.65194260e+04  1.55e-10 3.55e-15  1.14e-06    12s
  21   4.65193592e+04  4.65193927e+04  1.41e-10 3.55e-15  4.22e-07    12s
  22   4.65193689e+04  4.65193793e+04  2.07e-10 3.55e-15  1.32e-07    12s
  23   4.65193743e+04  4.65193757e+04  1.21e-09 1.82e-12  1.86e-08    12s
  24   4.65193753e+04  4.65193754e+04  5.60e-09 1.82e-12  1.33e-09    13s
  25   4.65193754e+04  4.65193754e+04  3.06e-08 1.82e-12  4.79e-11    13s

Barrier solved model in 25 iterations and 12.88 seconds (7.10 work units)
Optimal objective 4.65193754e+04

